#

Comment

0 2 2 1 -2 1 -2 1 -2 1 -2 1 -2 1 -1 1 4 2 4 2 4 2 4 2 -1 1 -1 1 0 1 -1 1 -1 1 1 1 0 1 0 1 0 1 1 1 -1 1 -1 1 -1 1 1 1 0 1 0 1 -1 1 0 1 0 1 0 1 0 1 0 1 0 1 0 1 0 1 0 1 0 1 0 1 0 1 0 1 0 1 0 1 -1 1 0 1 0 1
 Ca(Fragment=1)   -32.77063800   39.50974700  363.57702600
 O(Fragment=2)    -33.04720300   39.74889400  366.01110800
 O(Fragment=3)    -31.69716100   37.70754200  364.85397300
 O(Fragment=4)    -33.70638700   37.35898600  366.34097300
 O(Fragment=5)    -32.28048700   35.36364400  363.35394300
 O(Fragment=6)    -33.74041700   37.27010700  363.32977300
 O(Fragment=7)    -35.01484700   38.97977400  364.48025500
 Mn(Fragment=8)   -34.73356200   38.97860300  366.25180100
 Mn(Fragment=9)   -32.05383300   38.30879600  366.52902200
 Mn(Fragment=10)  -32.98041200   36.35495400  364.68496700
 Mn(Fragment=11)  -33.43338800   36.04988900  362.02270500
 C(Fragment=12)   -32.87511400   30.22723400  362.89813200
 C(Fragment=12)   -33.39274200   31.39952300  362.05007900
 O(Fragment=12)   -32.53976100   32.35257300  361.86660800
 O(Fragment=12)   -34.57428400   31.37711100  361.60620100
 H(Fragment=12)   -33.55777000   29.36445000  362.84744300
 H(Fragment=12)   -32.79331600   30.55759400  363.94995100
 H(Fragment=12)   -31.86573000   29.93129300  362.56527700
 C(Fragment=13)   -29.22525600   44.61436500  356.40097000
 C(Fragment=13)   -30.36890000   43.57172800  356.44833400
 C(Fragment=13)   -31.20949400   43.51540400  357.72030600
 C(Fragment=13)   -31.33383000   42.32402800  358.46987900
 C(Fragment=13)   -31.96055800   44.62645300  358.17465200
 C(Fragment=13)   -32.15522800   42.24195100  359.61047400
 C(Fragment=13)   -32.79592100   44.55501900  359.30200200
 C(Fragment=13)   -32.91202200   43.35401900  360.05587800
 O(Fragment=13)   -33.68734400   43.27611500  361.16268900
 H(Fragment=13)   -29.60979100   45.64250200  356.53097500
 H(Fragment=13)   -31.04702900   43.76355400  355.59170500
 H(Fragment=13)   -29.94412800   42.56521600  356.27243000
 H(Fragment=13)   -30.75882900   41.43918600  358.16220100
 H(Fragment=13)   -31.90948300   45.57378000  357.61990400
 H(Fragment=13)   -32.17882200   41.33378600  360.22592200
 H(Fragment=13)   -33.37538100   45.43644300  359.60409500
 H(Fragment=13)   -28.48500800   44.42855500  357.20080600
 H(Fragment=13)   -28.70275300   44.56922100  355.42919900
 C(Fragment=14)   -29.41539000   43.20224400  361.21508800
 C(Fragment=14)   -29.74318700   43.97597900  362.47390700
 N(Fragment=14)   -28.96606600   45.04269000  362.74719200
 O(Fragment=14)   -30.70742600   43.67306900  363.21945200
 H(Fragment=14)   -28.35335700   43.29234300  360.93569900
 H(Fragment=14)   -30.03162200   43.59223200  360.38632200
 H(Fragment=14)   -28.18606200   45.30256700  362.15277100
 H(Fragment=14)   -29.15500300   45.61134700  363.56820700
 H(Fragment=14)   -29.68040700   42.14320800  361.35446200
 C(Fragment=15)   -30.21986200   34.36522700  357.88336200
 C(Fragment=15)   -31.26598000   35.42887100  358.11782800
 O(Fragment=15)   -32.46526700   35.10578900  358.33053600
 H(Fragment=15)   -30.54896500   33.71163600  357.05767800
 N(Fragment=15)   -30.83928500   36.70288500  358.09561200
 C(Fragment=15)   -31.66571200   37.87869600  358.34014900
 C(Fragment=15)   -31.17125700   38.70269000  359.52972400
 C(Fragment=15)   -31.51099000   38.13707400  360.92605600
 O(Fragment=15)   -31.26010500   38.85728800  361.92578100
 O(Fragment=15)   -32.05931100   36.96785400  360.95623800
 H(Fragment=15)   -29.85336900   36.85996600  357.90084800
 H(Fragment=15)   -32.69599900   37.53321500  358.51312300
 H(Fragment=15)   -30.08047500   38.88119100  359.48217800
 H(Fragment=15)   -31.64657600   39.69419500  359.49661300
 H(Fragment=15)   -30.14777000   33.74042100  358.79162600
 H(Fragment=15)   -29.22444500   34.77698500  357.65167200
 H(Fragment=15)   -31.66750300   38.51067000  357.43344100
 C(Fragment=16)   -36.33796300   42.83069200  366.00531000
 C(Fragment=16)   -36.08242000   41.44974900  365.51046800
 O(Fragment=16)   -36.41326500   41.08927900  364.34799200
 O(Fragment=16)   -35.51543400   40.69988600  366.40267900
 H(Fragment=16)   -35.44397000   43.22031400  366.51724200
 H(Fragment=16)   -37.14016300   42.79245400  366.76178000
 H(Fragment=16)   -36.64330300   43.50381100  365.18954500
 C(Fragment=17)   -36.14360000   48.44412600  363.03991700
 C(Fragment=17)   -35.12361100   47.38213300  362.83828700
 C(Fragment=17)   -35.19965400   46.13921000  362.23880000
 N(Fragment=17)   -33.81068000   47.51103200  363.26663200
 C(Fragment=17)   -33.11995300   46.39822000  362.94601400
 N(Fragment=17)   -33.95083600   45.55535100  362.32171600
 H(Fragment=17)   -37.07914000   48.16643100  362.52893100
 H(Fragment=17)   -35.79977000   49.41217800  362.63522300
 H(Fragment=17)   -36.03746000   45.63581100  361.75717200
 H(Fragment=17)   -32.06703200   46.21994400  363.15484600
 H(Fragment=17)   -33.74802400   44.56422400  361.85519400
 H(Fragment=17)   -36.37131900   48.59117900  364.11135900
 C(Fragment=18)   -34.80800600   51.80341700  365.72381600
 C(Fragment=18)   -34.38911400   50.35656700  365.47802700
 N(Fragment=18)   -34.90041400   49.42074200  366.30816700
 O(Fragment=18)   -33.61421600   50.04669600  364.54107700
 H(Fragment=18)   -35.46255100   51.91610300  366.60220300
 H(Fragment=18)   -35.33248900   52.17550300  364.82666000
 H(Fragment=18)   -34.64931900   48.43718700  366.19442700
 H(Fragment=18)   -35.52772500   49.66595100  367.06704700
 H(Fragment=18)   -33.90131800   52.41748000  365.85928300
 H(Fragment=17)   -33.47760000   48.35314200  363.78149400
 C(Fragment=19)   -40.80398200   40.32317400  369.34854100
 C(Fragment=19)   -40.85596800   38.95278200  369.94900500
 O(Fragment=19)   -40.36956800   37.93556600  369.38836700
 H(Fragment=19)   -41.28381000   40.30777000  368.35412600
 N(Fragment=19)   -41.45528800   38.85380600  371.14282200
 C(Fragment=19)   -41.54615800   37.58436200  371.82418800
 H(Fragment=19)   -41.85110900   39.68320100  371.57357800
 H(Fragment=19)   -40.54184700   37.16441300  372.01129200
 C(Fragment=20)   -39.84034000   36.69996600  365.63192700
 C(Fragment=20)   -38.58357600   37.30255900  366.17639200
 C(Fragment=20)   -37.31065400   37.45414400  365.64654500
 N(Fragment=20)   -38.53355800   37.90332800  367.42919900
 C(Fragment=20)   -37.29699300   38.39592700  367.63659700
 N(Fragment=20)   -36.52717200   38.13516600  366.56951900
 H(Fragment=20)   -39.66020600   36.29518100  364.62307700
 H(Fragment=20)   -40.64415000   37.45511600  365.55947900
 H(Fragment=20)   -36.90784500   37.15969800  364.67800900
 H(Fragment=20)   -36.98407400   38.96547300  368.51080300
 H(Fragment=20)   -40.20813400   35.87804000  366.27282700
 H(Fragment=20)   -39.31863800   37.96060900  368.13439900
 H(Fragment=19)   -42.11508900   36.85159700  371.22457900
 H(Fragment=19)   -42.05768600   37.73055300  372.78717000
 H(Fragment=19)   -39.75013700   40.62042600  369.19567900
 H(Fragment=19)   -41.29846200   41.08393500  369.97302200
 C(Fragment=21)   -33.83993100   34.20789300  371.94070400
 C(Fragment=21)   -34.10802800   34.77723300  370.57540900
 C(Fragment=21)   -33.42966800   35.69830700  369.78936800
 N(Fragment=21)   -35.21516000   34.40536500  369.81610100
 C(Fragment=21)   -35.22134000   35.05201300  368.63739000
 N(Fragment=21)   -34.14354700   35.84048100  368.60611000
 H(Fragment=21)   -34.67340900   34.43079000  372.63018800
 H(Fragment=21)   -32.91762900   34.64652300  372.35180700
 H(Fragment=21)   -32.50475700   36.25118300  369.97930900
 H(Fragment=21)   -35.96384400   34.94984400  367.84808300
 H(Fragment=21)   -33.92142500   36.45398700  367.77359000
 H(Fragment=21)   -33.71649200   33.11148800  371.89117400
 H(Fragment=21)   -35.92593800   33.73493600  370.10278300
 C(Fragment=22)   -33.60783000   39.69578600  370.35687300
 C(Fragment=22)   -33.54216400   39.17197400  368.94094800
 O(Fragment=22)   -32.40428200   38.79119100  368.48040800
 O(Fragment=22)   -34.61536400   39.15343100  368.25882000
 H(Fragment=22)   -34.50776700   39.30682400  370.86026000
 H(Fragment=22)   -33.70795400   40.79625700  370.29534900
 H(Fragment=22)   -32.70362500   39.43795000  370.92746000
 C(Fragment=23)   -29.06308400   41.22543700  366.54788200
 C(Fragment=23)   -30.10993400   40.31092100  365.93005400
 O(Fragment=23)   -30.56900000   40.48821300  364.77871700
 O(Fragment=23)   -30.46872500   39.33993100  366.73211700
 H(Fragment=23)   -28.56032600   41.82286500  365.77163700
 H(Fragment=23)   -28.33160200   40.64564900  367.13333100
 H(Fragment=23)   -29.58939200   41.90841300  367.23953200
 C(Fragment=24)   -30.49567600   34.51856600  367.65078700
 C(Fragment=24)   -31.28130100   35.55961600  366.92953500
 O(Fragment=24)   -31.12368200   36.77252200  367.32043500
 O(Fragment=24)   -32.04147300   35.18030200  365.98764000
 H(Fragment=24)   -30.91710500   33.51766200  367.47558600
 H(Fragment=24)   -30.46522500   34.72888600  368.73260500
 H(Fragment=24)   -29.45080800   34.52210600  367.28808600
 C(Fragment=25)   -25.86154400   37.41581000  363.97998000
 N(Fragment=25)   -27.14939900   36.78849400  363.72888200
 C(Fragment=25)   -28.30665600   37.46708300  363.66272000
 N(Fragment=25)   -28.31720500   38.80776600  363.82489000
 N(Fragment=25)   -29.43921300   36.82341000  363.38656600
 H(Fragment=25)   -25.66744800   38.22531900  363.25372300
 H(Fragment=25)   -25.78918500   37.82814800  365.00518800
 H(Fragment=25)   -27.23528700   35.76301600  363.79495200
 H(Fragment=25)   -27.54987100   39.26371400  364.30621300
 H(Fragment=25)   -29.20741500   39.30873100  363.80593900
 H(Fragment=25)   -29.45172900   35.84510400  363.04931600
 H(Fragment=25)   -30.33617400   37.25074400  363.64083900
 H(Fragment=25)   -25.07621400   36.65452600  363.86138900
 H(Fragment=26)   -32.74500700   34.67842100  359.98144500
 O(Fragment=27)   -30.53491600   37.51580800  370.12496900
 H(Fragment=27)   -30.12114300   37.02410500  369.38922100
 H(Fragment=27)   -31.13252800   38.12379500  369.62542700
 O(Fragment=28)   -34.70494800   36.93706900  360.99462900
 H(Fragment=28)   -34.86093100   36.49070400  360.12030000
 O(Fragment=29)   -37.86888500   44.25031700  368.95538300
 H(Fragment=29)   -37.63361000   43.27457800  369.06881700
 H(Fragment=29)   -38.50999800   44.27718000  368.22235100
 O(Fragment=26)   -33.14918900   34.51223800  360.87301600
 H(Fragment=26)   -32.90425900   33.49552900  361.30099500
 O(Fragment=30)   -35.84645800   41.55445500  361.59722900
 H(Fragment=30)   -35.14117100   42.23305500  361.39297500
 H(Fragment=30)   -36.07304800   41.64740400  362.55267300
 O(Fragment=31)   -38.34236100   35.15219500  361.02288800
 H(Fragment=31)   -38.04155700   35.90668100  360.45117200
 H(Fragment=31)   -37.66465400   34.45749300  360.86508200
 O(Fragment=32)   -35.96809000   33.52070200  360.58853100
 H(Fragment=32)   -35.63946900   34.11132400  361.31359900
 H(Fragment=32)   -35.44865400   32.68769100  360.80499300
 O(Fragment=33)   -32.73756400   41.87693400  363.14151000
 H(Fragment=33)   -31.82636500   42.28482100  363.16751100
 H(Fragment=33)   -33.13275900   42.33809300  362.31250000
 O(Fragment=34)   -35.25486800   35.41792700  358.70459000
 H(Fragment=34)   -35.41508100   34.62002200  359.29040500
 H(Fragment=34)   -34.30855600   35.35836000  358.43212900
 O(Fragment=35)   -36.91102600   39.86062200  359.37835700
 H(Fragment=35)   -35.99164600   39.95725300  359.00329600
 H(Fragment=35)   -36.85090600   40.37654100  360.21179200
 O(Fragment=36)   -35.30125000   45.21112400  368.68817100
 H(Fragment=36)   -36.27029800   44.98257400  368.62698400
 H(Fragment=36)   -35.00740800   45.49811900  367.78585800
 O(Fragment=37)   -34.50388300   42.62992100  369.13906900
 H(Fragment=37)   -33.85608300   42.38877900  368.41088900
 H(Fragment=37)   -34.71131900   43.59780500  368.98245200
 O(Fragment=38)   -32.58504100   42.09025200  367.28991700
 H(Fragment=38)   -32.75760700   41.21960800  366.83087200
 H(Fragment=38)   -32.60471300   42.75391800  366.55316200
 O(Fragment=39)   -34.10397700   39.47785600  361.43130500
 H(Fragment=39)   -34.87881100   40.10070800  361.53405800
 H(Fragment=39)   -34.46165800   38.53528200  361.27887000
 O(Fragment=40)   -34.03222300   46.10559800  366.32675200
 H(Fragment=40)   -33.23531300   46.40409500  366.80535900
 H(Fragment=40)   -33.69517900   45.34033600  365.78866600
 O(Fragment=41)   -34.23561900   40.01132600  358.71899400
 H(Fragment=41)   -33.84511600   40.89877700  358.58090200
 H(Fragment=41)   -34.03359200   39.81208800  359.67712400
 O(Fragment=42)   -32.79650500   43.85670900  365.11605800
 H(Fragment=42)   -31.90878900   44.07793000  364.74469000
 H(Fragment=42)   -33.09076300   43.16135800  364.46646100
 O(Fragment=43)   -37.01194000   41.70596300  369.24856600
 H(Fragment=43)   -36.02557800   41.91425700  369.13140900
 H(Fragment=43)   -37.09228100   41.45811800  370.18771400
 C(Fragment=44)   -36.37617900   33.71920400  364.23025500
 C(Fragment=44)   -35.19953900   34.65017300  363.95632900
 O(Fragment=44)   -34.54626800   35.13504000  364.94018600
 O(Fragment=44)   -34.92210800   34.89966600  362.73190300
 H(Fragment=44)   -37.25967000   34.07983800  363.67633100
 H(Fragment=44)   -36.12581600   32.71504200  363.84466600
 H(Fragment=44)   -36.58813500   33.66676700  365.30761700
 O(Fragment=45)   -37.51201200   37.11924700  359.15652500
 H(Fragment=45)   -37.25883900   38.06133300  359.35250900
 H(Fragment=45)   -36.67369800   36.67467100  358.88961800
 H(Fragment=7)    -35.70529600   39.69889100  364.27679400
 C(Fragment=46)   -29.74643500   33.11724900  363.17901600
 H(Fragment=46)   -29.16974600   32.42675000  362.52987700
 H(Fragment=46)   -30.67680400   32.59052300  363.46432500
 C(Fragment=46)   -28.91851800   33.44568300  364.41922000
 H(Fragment=46)   -29.40996400   34.26554500  364.97479200
 C(Fragment=46)   -28.72957000   32.24637600  365.35018900
 H(Fragment=46)   -29.70380000   31.93305800  365.76617400
 H(Fragment=46)   -28.31499500   31.38934900  364.77487200
 O(Fragment=46)   -30.06078100   34.28284100  362.41412400
 H(Fragment=46)   -30.96123900   34.60454200  362.72808800
 O(Fragment=46)   -27.88106300   32.57609600  366.45687900
 H(Fragment=46)   -27.12044700   33.05506500  366.06781000
 O(Fragment=46)   -27.60881200   33.97982800  364.06994600
 H(Fragment=46)   -27.21919800   33.39592000  363.38855000

