%moinp "S3_glycerol_model_7A_2_Flip_BS_baaa_Mn7_3.moinp"
%base "S3_glycerol_model_7A_2_Flip_BS_baaa_Mn7_3"
! MORead TPSSh ZORA-def2-TZVP TightSCF CPCM(water) D3BJ printbasis RIJCOSX ZORA 
%SCF
Flipspin 7
FinalMs 3
END       
%cpcm epsilon 8.0
end
%output print[p_basis] 2 end
* xyz 1 13
Ca   -32.786923   39.480822  363.575123
O    -33.057086   39.745945  366.014558
O    -31.705389   37.695931  364.862169
O    -33.712606   37.356939  366.344036
O    -32.295324   35.322227  363.377099
O    -33.737025   37.244703  363.327156
O    -35.029039   38.968584  364.483407
Mn   -34.742316   38.971597  366.254448
Mn   -32.061675   38.306403  366.534767
Mn   -32.988543   36.343625  364.695287
Mn   -33.438999   36.003400  362.029276
C    -32.875113   30.227234  362.898131
C    -33.379123   31.383762  362.027210
O    -32.522722   32.346372  361.873161
O    -34.539562   31.355232  361.541835
H    -33.550633   29.359486  362.838505
H    -32.821969   30.569016  363.948135
H    -31.855519   29.934613  362.594665
C    -29.225257   44.614365  356.400967
C    -30.345668   43.550275  356.459254
C    -31.181292   43.497683  357.733497
C    -31.366530   42.288626  358.441533
C    -31.864222   44.632501  358.232333
C    -32.183224   42.210972  359.585106
C    -32.692919   44.567812  359.364543
C    -32.872928   43.348814  360.076287
O    -33.645340   43.277570  361.183254
H    -29.631167   45.636789  356.507457
H    -31.027437   43.717350  355.599839
H    -29.902578   42.549473  356.296263
H    -30.846448   41.384034  358.095331
H    -31.760452   45.595106  357.712532
H    -32.263803   41.278869  360.158237
H    -33.218776   45.469005  359.703601
H    -28.487259   44.459794  357.209628
H    -28.693445   44.562761  355.434521
C    -29.415391   43.202243  361.215080
C    -29.800101   44.001247  362.439895
N    -29.208175   45.202300  362.590287
O    -30.646031   43.589376  363.272855
H    -28.363984   43.370738  360.929222
H    -30.057556   43.507835  360.370827
H    -28.519866   45.545486  361.928096
H    -29.446535   45.789378  363.385271
H    -29.590518   42.132236  361.401827
C    -30.219862   34.365225  357.883357
C    -31.284016   35.420171  358.085278
O    -32.473606   35.090172  358.333092
H    -30.576751   33.621674  357.151068
N    -30.873382   36.698286  358.007740
C    -31.665713   37.878695  358.340148
C    -31.104188   38.584196  359.584174
C    -31.499654   38.033716  360.957675
O    -31.275510   38.753351  361.963151
O    -32.046093   36.864658  360.972040
H    -29.888198   36.855206  357.805888
H    -32.706295   37.558891  358.500995
H    -29.998288   38.625328  359.542077
H    -31.433948   39.635179  359.587287
H    -30.071978   33.840212  358.844676
H    -29.254074   34.777854  357.549926
H    -31.649733   38.577441  357.485633
C    -36.337963   42.830694  366.005325
C    -36.095558   41.447132  365.507707
O    -36.408878   41.090504  364.341882
O    -35.548987   40.685700  366.407997
H    -35.398290   43.253814  366.398830
H    -37.047155   42.792761  366.849834
H    -36.741152   43.479258  365.212677
C    -36.143601   48.444125  363.039910
C    -35.117610   47.389434  362.833596
C    -35.191974   46.131748  362.265338
N    -33.796678   47.545640  363.225781
C    -33.100388   46.433313  362.917101
N    -33.934401   45.564893  362.333386
H    -37.094922   48.137693  362.576236
H    -35.830959   49.403377  362.590965
H    -36.033538   45.605777  361.815094
H    -32.041770   46.271636  363.109242
H    -33.723186   44.570944  361.879198
H    -36.328004   48.623274  364.114738
C    -34.808006   51.803416  365.723829
C    -34.353758   50.371572  365.457461
N    -34.802026   49.418320  366.304242
O    -33.611052   50.089925  364.486571
H    -35.373664   51.906423  366.663227
H    -35.440916   52.132292  364.880760
H    -34.534085   48.442591  366.165162
H    -35.401392   49.641607  367.092151
H    -33.922241   52.460326  365.752000
H    -33.470200   48.396507  363.732305
C    -40.803981   40.323173  369.348550
C    -40.863842   38.950391  369.945167
O    -40.408476   37.926015  369.373328
H    -41.347532   40.328810  368.386971
N    -41.443829   38.856767  371.150256
C    -41.546156   37.584363  371.824190
H    -41.817522   39.690501  371.592880
H    -40.547233   37.140113  371.981936
C    -39.840339   36.699968  365.631931
C    -38.582644   37.285159  366.186204
C    -37.319076   37.461819  365.643952
N    -38.516003   37.828068  367.463053
C    -37.276448   38.309727  367.673638
N    -36.522235   38.102709  366.583457
H    -39.668173   36.339144  364.605084
H    -40.650022   37.451904  365.602814
H    -36.935539   37.201870  364.658087
H    -36.948003   38.812739  368.581058
H    -40.195930   35.849639  366.242141
H    -39.306114   37.895323  368.161075
H    -42.147697   36.868848  371.235363
H    -42.028521   37.733946  372.801883
H    -39.753181   40.583012  369.127984
H    -41.232017   41.096084  370.006241
C    -33.839932   34.207894  371.940715
C    -34.129274   34.768779  370.577715
C    -33.459917   35.682750  369.777658
N    -35.248735   34.395262  369.836567
C    -35.270156   35.035305  368.654073
N    -34.189980   35.819891  368.604436
H    -34.660649   34.436153  372.643872
H    -32.909653   34.647138  372.333141
H    -32.531739   36.234519  369.951781
H    -36.023907   34.933847  367.874429
H    -33.969932   36.427210  367.769504
H    -33.719214   33.110729  371.897463
H    -35.957798   33.729590  370.140772
C    -33.607831   39.695786  370.356862
C    -33.546315   39.169525  368.942958
O    -32.412567   38.779928  368.484871
O    -34.619685   39.164965  368.258331
H    -34.582085   39.455851  370.810450
H    -33.518625   40.797641  370.301553
H    -32.784329   39.298154  370.968821
C    -29.063084   41.225436  366.547868
C    -30.102385   40.300681  365.932224
O    -30.553600   40.467732  364.774887
O    -30.471772   39.338380  366.738326
H    -28.534358   41.794083  365.767113
H    -28.351825   40.659425  367.170248
H    -29.603359   41.933518  367.202658
C    -30.495677   34.518567  367.650801
C    -31.287640   35.556755  366.933972
O    -31.126766   36.770070  367.320143
O    -32.061673   35.174108  366.004165
H    -30.785989   33.507811  367.330239
H    -30.638373   34.618649  368.740897
H    -29.419502   34.667169  367.449299
C    -25.861543   37.415810  363.979978
N    -27.146074   36.779483  363.745944
C    -28.302446   37.457262  363.675816
N    -28.307601   38.802707  363.797916
N    -29.439028   36.807454  363.428946
H    -25.654947   38.189735  363.218629
H    -25.800095   37.877484  364.984956
H    -27.221061   35.752870  363.818590
H    -27.534789   39.269641  364.260907
H    -29.199753   39.300758  363.804015
H    -29.449861   35.809341  363.157397
H    -30.333253   37.240676  363.685579
H    -25.077065   36.647595  363.908547
H    -32.764763   34.653239  359.981744
O    -30.523383   37.502148  370.150545
H    -30.130249   36.997909  369.412394
H    -31.132314   38.103733  369.659509
O    -34.698864   36.911453  360.998509
H    -34.851539   36.472994  360.117933
O    -37.462679   44.721832  369.035015
H    -37.255055   43.751172  369.212694
H    -38.030560   44.713473  368.242965
O    -33.167120   34.475566  360.872749
H    -32.900010   33.440102  361.306557
O    -35.812969   41.554226  361.571546
H    -35.095100   42.225433  361.384902
H    -36.036438   41.645900  362.527087
O    -38.282103   35.294412  361.051393
H    -38.003691   36.007735  360.414782
H    -37.673348   34.552269  360.843019
O    -35.988398   33.509488  360.554212
H    -35.650366   34.086338  361.283951
H    -35.465208   32.676278  360.742561
O    -32.717648   41.827958  363.131687
H    -31.803676   42.223075  363.168859
H    -33.109408   42.309574  362.313708
O    -35.261240   35.434210  358.690478
H    -35.436584   34.631828  359.264509
H    -34.314852   35.363201  358.419925
O    -36.915279   39.874101  359.339460
H    -35.986978   39.936894  358.976290
H    -36.839425   40.373145  360.181681
O    -34.835062   45.477267  368.747308
H    -35.818470   45.302539  368.729368
H    -34.570791   45.698432  367.815403
O    -34.127744   42.903999  369.261472
H    -33.569350   42.580015  368.491677
H    -34.300362   43.875202  369.064329
O    -32.494457   42.101641  367.253354
H    -32.736356   41.235831  366.819572
H    -32.532086   42.757873  366.508703
O    -34.090971   39.460267  361.435385
H    -34.856306   40.099521  361.520100
H    -34.460082   38.525379  361.282096
O    -33.790736   46.173335  366.250048
H    -32.937801   46.530982  366.562442
H    -33.523120   45.352207  365.751982
O    -34.245665   39.931513  358.689058
H    -33.849018   40.810237  358.519323
H    -34.025267   39.757697  359.646879
O    -32.737446   43.856327  365.094285
H    -31.865085   44.041041  364.663676
H    -33.104268   43.173042  364.473785
O    -36.658017   42.179566  369.504012
H    -35.660760   42.363207  369.387848
H    -36.758084   41.963676  370.449314
C    -36.376179   33.719203  364.230246
C    -35.205300   34.643607  363.960553
O    -34.559038   35.138202  364.943454
O    -34.923564   34.877667  362.733685
H    -37.266101   34.100250  363.701225
H    -36.141373   32.722584  363.816913
H    -36.574059   33.644380  365.309206
O    -37.514625   37.148869  359.095582
H    -37.263872   38.094284  359.284208
H    -36.674868   36.703232  358.833651
H    -35.707677   39.698650  364.274003
C    -29.705017   33.075026  363.348189
H    -29.187027   32.350537  362.686631
H    -30.621711   32.579049  363.719001
C    -28.792197   33.419247  364.523798
H    -29.245294   34.239386  365.109674
C    -28.531032   32.225546  365.444250
H    -29.478430   31.885706  365.899302
H    -28.118103   31.382051  364.847660
O    -30.039953   34.226212  362.568350
H    -30.949872   34.547550  362.860379
O    -27.647349   32.574949  366.516688
H    -26.905719   33.058488  366.098727
O    -27.515551   33.960089  364.078996
H    -27.163913   33.370508  363.381660
*
%geom                 
   Constraints
      { C 11 C }
      { C 18 C }
      { C 36 C }
      { C 45 C }
      { C 50 C }
      { C 62 C }
      { C 69 C }
      { C 81 C }
      { C 91 C }
      { C 96 C }
      { C 99 C }
      { C 115 C }
      { C 128 C }
      { C 135 C }
      { C 142 C }
      { C 149 C }
      { C 215 C }  
   end            
end               