%base "S3_glycerol_model_13A_1_OPT_fast"
! OPT BP86 ZORA ZORA-def2-SVP TightSCF CPCM(water) D3BJ printbasis
%basis
   NewGTO Mn "ZORA-def2-TZVP" end
   NewGTO Ca "ZORA-def2-TZVP" end
   NewGTO  O "ZORA-def2-TZVP" end
   NewGTO  N "ZORA-def2-TZVP" end
end
%cpcm
   epsilon 8.0
end
%geom                 
   Constraints
      { C 11 C }
      { C 18 C }
      { C 36 C }
      { C 45 C }
      { C 50 C }
      { C 62 C }
      { C 69 C }
      { C 81 C }
      { C 91 C }
      { C 96 C }
      { C 99 C }
      { C 115 C }
      { C 128 C }
      { C 135 C }
      { C 142 C }
      { C 149 C }
      { C 215 C }  
   end            
end               
%output print[p_basis] 2 end
* xyz 1 13
Ca    -32.770637535     39.509747637     363.577017693  
O     -33.047204609     39.748895257     366.011100861   
O     -31.697160344     37.707544042     364.853960830   
O     -33.706387630     37.358984262     366.340966834   
O     -32.280485674     35.363644248     363.353947703   
O     -33.740416035     37.270107787     363.329777028   
O     -35.014845652     38.979773848     364.480263368   
Mn    -34.733562071     38.978602015     366.251785809  
Mn    -32.053833669     38.308796693     366.529027316  
Mn    -32.980411458     36.354954879     364.684981259  
Mn    -33.433387233     36.049890427     362.022703496  
C     -32.875113307     30.227233879     362.898131289   
C     -33.392742114     31.399521962     362.050088842   
O     -32.539761981     32.352575159     361.866608924   
O     -34.574283635     31.377110600     361.606195099   
H     -33.557770127     29.364450859     362.847428301   
H     -32.793317614     30.557593752     363.949943355   
H     -31.865731132     29.931292616     362.565265117   
C     -29.225256615     44.614364720     356.400966597   
C     -30.368900098     43.571728969     356.448347736   
C     -31.209493549     43.515404800     357.720301973   
C     -31.333829752     42.324027409     358.469894132   
C     -31.960558796     44.626452203     358.174657002   
C     -32.155227930     42.241951369     359.610461441   
C     -32.795920686     44.555020859     359.302003544   
C     -32.912021861     43.354019027     360.055891408   
O     -33.687343056     43.276115141     361.162681234   
H     -29.609790117     45.642501245     356.530968294   
H     -31.047029254     43.763553401     355.591707244
H     -29.944127718     42.565217864     356.272420248   
H     -30.758828362     41.439186862     358.162214516   
H     -31.909483019     45.573779310     357.619918278   
H     -32.178821364     41.333787052     360.225921746   
H     -33.375382806     45.436442483     359.604103795   
H     -28.485008756     44.428554712     357.200793474   
H     -28.702752651     44.569221732     355.429207503   
C     -29.415390682     43.202242844     361.215079876   
C     -29.743187709     43.975977603     362.473892445   
N     -28.966066536     45.042691723     362.747197860   
O     -30.707425678     43.673068719     363.219440268   
H     -28.353356419     43.292344736     360.935704722   
H     -30.031621066     43.592230465     360.386307786   
H     -28.186061640     45.302566795     362.152785526   
H     -29.155003193     45.611346170     363.568195361   
H     -29.680405979     42.143206746     361.354453368   
C     -30.219862172     34.365225156     357.883356707   
C     -31.265979343     35.428872538     358.117838683   
O     -32.465267696     35.105788785     358.330534722   
H     -30.548964550     33.711636798     357.057675238   
N     -30.839285165     36.702884313     358.095611476   
C     -31.665713258     37.878695414     358.340148099   
C     -31.171256296     38.702689534     359.529733563   
C     -31.510990334     38.137073983     360.926059524   
O     -31.260104607     38.857290173     361.925789446   
O     -32.059310129     36.967852244     360.956250203   
H     -29.853368899     36.859965935     357.900835845   
H     -32.696000942     37.533213534     358.513109531   
H     -30.080474517     38.881191404     359.482179370   
H     -31.646576485     39.694196408     359.496617282   
H     -30.147770517     33.740422289     358.791633663   
H     -29.224445605     34.776986685     357.651665274
H     -31.667502676     38.510667898     357.433455709   
C     -36.337962692     42.830693795     366.005324996   
C     -36.082419250     41.449748795     365.510459304   
O     -36.413263777     41.089277359     364.347984554   
O     -35.515433623     40.699886335     366.402668576   
H     -35.443968741     43.220313110     366.517256166   
H     -37.140162322     42.792452540     366.761789781   
H     -36.643302232     43.503811115     365.189557026   
C     -36.143600871     48.444125326     363.039910483   
C     -35.123609713     47.382132026     362.838301942   
C     -35.199653810     46.139209793     362.238802590   
N     -33.810679734     47.511031739     363.266643682   
C     -33.119951259     46.398220910     362.946022278   
N     -33.950835523     45.555350590     362.321704350   
H     -37.079138753     48.166431264     362.528939229   
H     -35.799770232     49.412176143     362.635238065   
H     -36.037461143     45.635810860     361.757156956   
H     -32.067032853     46.219942580     363.154855679   
H     -33.748024271     44.564223397     361.855206387   
H     -36.371319270     48.591177503     364.111367615   
C     -34.808006280     51.803415642     365.723829254   
C     -34.389116229     50.356567663     365.478031419   
N     -34.900413817     49.420742363     366.308155680   
O     -33.614215855     50.046695296     364.541090258   
H     -35.462549617     51.916104440     366.602205658   
H     -35.332490870     52.175503709     364.826666280   
H     -34.649320141     48.437188906     366.194416085   
H     -35.527725818     49.665950078     367.067050263   
H     -33.901318725     52.417481303     365.859278837   
H     -33.477598494     48.353140369     363.781485225   
C     -40.803980832     40.323172631     369.348550475   
C     -40.855968218     38.952780719     369.949004348
O     -40.369567952     37.935565434     369.388364156   
H     -41.283809038     40.307768986     368.354114958   
N     -41.455288319     38.853803668     371.142828740   
C     -41.546155973     37.584363353     371.824189927   
H     -41.851109818     39.683199214     371.573574078   
H     -40.541845533     37.164412927     372.011301415   
C     -39.840339363     36.699967859     365.631930627   
C     -38.583577802     37.302559191     366.176402222   
C     -37.310655256     37.454143008     365.646538545   
N     -38.533556785     37.903328339     367.429208074   
C     -37.296992563     38.395925819     367.636599636   
N     -36.527170554     38.135167962     366.569529791   
H     -39.660204599     36.295181373     364.623092100   
H     -40.644150784     37.455117738     365.559490691   
H     -36.907844564     37.159698803     364.677995025   
H     -36.984073510     38.965473619     368.510817782   
H     -40.208132157     35.878040518     366.272838325   
H     -39.318639243     37.960609973     368.134409644   
H     -42.115088222     36.851597914     371.224587200   
H     -42.057684083     37.730554472     372.787184535   
H     -39.750136498     40.620426693     369.195685252   
H     -41.298460772     41.083933449     369.973009825   
C     -33.839931995     34.207894354     371.940715029   
C     -34.108027329     34.777232952     370.575421582   
C     -33.429667415     35.698305753     369.789369112   
N     -35.215159910     34.405363104     369.816088401   
C     -35.221339978     35.052012948     368.637402372   
N     -34.143546603     35.840480485     368.606111833   
H     -34.673410397     34.430788862     372.630182504   
H     -32.917629242     34.646522708     372.351819779   
H     -32.504758179     36.251183341     369.979311743   
H     -35.963843410     34.949842959     367.848076467
H     -33.921423054     36.453986184     367.773590115   
H     -33.716490487     33.111487280     371.891177057   
H     -35.925936257     33.734937087     370.102778848   
C     -33.607831281     39.695786438     370.356861884   
C     -33.542164489     39.171972493     368.940956865   
O     -32.404281155     38.791190651     368.480411875   
O     -34.615365625     39.153429287     368.258805846   
H     -34.507766511     39.306825070     370.860268505   
H     -33.707953370     40.796258759     370.295364291   
H     -32.703624804     39.437948636     370.927449455   
C     -29.063084358     41.225436123     366.547868088   
C     -30.109933178     40.310921559     365.930041933   
O     -30.569000837     40.488212088     364.778710271   
O     -30.468724690     39.339930992     366.732109671   
H     -28.560326114     41.822864197     365.771641873   
H     -28.331602699     40.645650701     367.133343812   
H     -29.589391329     41.908414548     367.239524018   
C     -30.495676522     34.518567241     367.650800958   
C     -31.281300687     35.559614846     366.929528614   
O     -31.123682362     36.772521195     367.320442213   
O     -32.041472150     35.180302251     365.987633007   
H     -30.917104313     33.517663213     367.475575443   
H     -30.465225125     34.728886622     368.732609031   
H     -29.450806653     34.522104449     367.288078669   
C     -25.861543029     37.415810191     363.979978216   
N     -27.149398360     36.788494260     363.728870459   
C     -28.306655645     37.467082447     363.662734630   
N     -28.317205760     38.807767315     363.824901514   
N     -29.439212803     36.823411507     363.386558375   
H     -25.667447238     38.225319118     363.253727658   
H     -25.789185351     37.828146699     365.005191548   
H     -27.235286134     35.763014036     363.794956231
H     -27.549870926     39.263715721     364.306227200   
H     -29.207414534     39.308732911     363.805926212   
H     -29.451728318     35.845102750     363.049315153   
H     -30.336173726     37.250743551     363.640847547   
H     -25.076212966     36.654526621     363.861374422   
H     -32.745005420     34.678419669     359.981438954   
O     -30.534916207     37.515808543     370.124966058   
H     -30.121144203     37.024106929     369.389218715   
H     -31.132528738     38.123794577     369.625432414   
O     -34.704947965     36.937070291     360.994615895   
H     -34.860933182     36.490703324     360.120305271   
O     -37.868885442     44.250315927     368.955394751   
H     -37.633609370     43.274579741     369.068804878   
H     -38.509999194     44.277179356     368.222366045   
O     -33.149188836     34.512236362     360.873022927   
H     -32.904260070     33.495527328     361.300982871   
O     -35.846458200     41.554453295     361.597235900   
H     -35.141172100     42.233054440     361.392967785   
H     -36.073046605     41.647404048     362.552659144   
O     -38.342361394     35.152193534     361.022903294   
H     -38.041555548     35.906679254     360.451184673   
H     -37.664653513     34.457492416     360.865068480   
O     -35.968090306     33.520703763     360.588523373   
H     -35.639467922     34.111323661     361.313588596   
H     -35.448654498     32.687691511     360.804999176   
O     -32.737562643     41.876932332     363.141518495   
H     -31.826364315     42.284819811     363.167521636   
H     -33.132760185     42.338093408     362.312499251   
O     -35.254869402     35.417927975     358.704598800   
H     -35.415079874     34.620023139     359.290417317   
H     -34.308555784     35.358360523     358.432136655   
O     -36.911027360     39.860623191     359.378365106
H     -35.991647143     39.957252960     359.003286702   
H     -36.850906379     40.376539927     360.211779528   
O     -35.301249264     45.211125462     368.688171579   
H     -36.270299491     44.982574889     368.626983110   
H     -35.007408333     45.498119224     367.785845697   
O     -34.503881643     42.629919340     369.139058907   
H     -33.856084708     42.388780078     368.410902274   
H     -34.711318663     43.597805254     368.982466542   
O     -32.585039503     42.090250638     367.289916961   
H     -32.757604925     41.219607512     366.830861888   
H     -32.604715294     42.753917799     366.553162129   
O     -34.103975460     39.477854412     361.431298787   
H     -34.878810936     40.100706642     361.534071857   
H     -34.461657832     38.535281899     361.278855792   
O     -34.032221678     46.105598546     366.326742924   
H     -33.235315213     46.404095275     366.805369133   
H     -33.695180887     45.340334608     365.788677784   
O     -34.235616915     40.011325134     358.719003356   
H     -33.845114490     40.898777224     358.580898344   
H     -34.033592620     39.812089670     359.677135599   
O     -32.796503633     43.856707085     365.116061934   
H     -31.908789215     44.077931546     364.744680718   
H     -33.090763825     43.161359697     364.466470104   
O     -37.011940792     41.705962031     369.248564876   
H     -36.025575912     41.914255287     369.131398252   
H     -37.092282500     41.458117391     370.187700902   
C     -36.376178862     33.719202696     364.230245656   
C     -35.199539619     34.650174829     363.956323164   
O     -34.546270291     35.135039930     364.940175141   
O     -34.922106528     34.899665440     362.731899889   
H     -37.259672117     34.079838657     363.676341456   
H     -36.125817041     32.715040632     363.844660599
H     -36.588134617     33.666768497     365.307612404   
O     -37.512010761     37.119249312     359.156511410   
H     -37.258838162     38.061331691     359.352523208   
H     -36.673700106     36.674670701     358.889618129   
H     -35.705296758     39.698892244     364.276784529   
C     -29.746434393     33.117249729     363.179003828   
H     -29.169745857     32.426749834     362.529870883   
H     -30.676803718     32.590521991     363.464329027   
C     -28.918517916     33.445683725     364.419231450   
H     -29.409963955     34.265543740     364.974804773   
C     -28.729570182     32.246375947     365.350184305   
H     -29.703799603     31.933057126     365.766171288   
H     -28.314994583     31.389349229     364.774872599   
O     -30.060782335     34.282841118     362.414137325   
H     -30.961239155     34.604542618     362.728091479   
O     -27.881064253     32.576095950     366.456891948   
H     -27.120447299     33.055066018     366.067800585   
O     -27.608812862     33.979827660     364.069939520   
H     -27.219197292     33.395917970     363.388560631
*




























































